\ENCODING=ISO-8859-1
\Problem name: 

Maximize
 obj: x1 + x2 + x3 + x4 + x5 + x6 + x7 + x8 + x9 + x10 + x11 + x12 + x13 + x14
      + x15 + x16 + x17 + x18 + x19 + x20 + x21 + x22 + x23 + x24 + x25 + x26
      + x27 + x28 + x29 + x30 + x31 + x32 + x33 + x34 + x35 + x36 + x37 + x38
      + x39 + x40 + x41 + x42 + x43 + x44 + x45 + x46 + x47 + x48 + x49 + x50
      + x51 + x52 + x53 + x54 + x55 + x56 + x57 + x58 + x59 + x60 + x61 + x62
      + x63 + x64 + x65 + x66 + x67 + x68 + x69 + x70 + x71 + x72 + x73 + x74
      + x75 + x76 + x77 + x78 + x79 + x80 + x81 + x82 + x83 + x84 + x85 + x86
      + x87 + x88 + x89 + x90 + x91 + x92 + x93 + x94 + x95 + x96 + x97 + x98
      + x99 + x100 + x101 + x102 + x103 + x104 + x105 + x106 + x107 + x108
      + x109 + x110 + x111 + x112 + x113 + x114 + x115 + x116 + x117 + x118
      + x119 + x120 + x121 + x122 + x123 + x124 + x125 + x126 + x127 + x128
      + x129 + x130 + x131 + x132 + x133 + x134 + x135 + x136 + x137 + x138
      + x139 + x140 + x141 + x142 + x143 + x144 + x145 + x146 + x147 + x148
      + x149 + x150
Subject To
 clq1:   x49 + x146 <= 1
 clq2:   x25 + x26 + x46 + x88 <= 1
 clq3:   x12 + x78 <= 1
 clq4:   x43 + x135 <= 1
 clq5:   x103 + x116 + x130 <= 1
 clq6:   x10 + x98 + x139 <= 1
 clq7:   x21 + x130 + x139 <= 1
 clq8:   x14 + x85 + x113 <= 1
 clq9:   x6 + x109 + x122 <= 1
 clq10:  x55 + x58 + x71 <= 1
 clq11:  x20 + x109 <= 1
 clq12:  x17 + x64 <= 1
 clq13:  x84 + x106 + x147 <= 1
 clq14:  x60 + x123 <= 1
 clq15:  x97 + x103 + x136 <= 1
 clq16:  x26 + x88 + x108 <= 1
 clq17:  x127 + x138 <= 1
 clq18:  x57 + x90 + x93 <= 1
 clq19:  x118 + x126 <= 1
 clq20:  x19 + x39 <= 1
 clq21:  x34 + x85 <= 1
 clq22:  x5 + x51 + x122 <= 1
 clq23:  x4 + x35 <= 1
 clq24:  x20 + x37 + x41 <= 1
 clq25:  x14 + x30 + x44 <= 1
 clq26:  x11 + x122 + x140 <= 1
 clq27:  x1 + x89 <= 1
 clq28:  x8 + x64 + x115 <= 1
 clq29:  x35 + x141 <= 1
 clq30:  x11 + x41 <= 1
 clq31:  x76 + x121 <= 1
 clq32:  x40 + x141 + x143 <= 1
 clq33:  x1 + x77 + x87 + x129 <= 1
 clq34:  x18 + x62 + x149 <= 1
 clq35:  x24 + x32 + x56 <= 1
 clq36:  x44 + x50 + x115 <= 1
 clq37:  x38 + x80 + x134 <= 1
 clq38:  x63 + x82 + x136 <= 1
 clq39:  x113 + x116 + x130 <= 1
 clq40:  x65 + x77 + x100 <= 1
 clq41:  x96 + x114 <= 1
 clq42:  x10 + x114 <= 1
 clq43:  x30 + x54 + x93 <= 1
 clq44:  x140 + x144 <= 1
 clq45:  x55 + x89 + x101 <= 1
 clq46:  x44 + x77 + x148 <= 1
 clq47:  x81 + x98 + x145 <= 1
 clq48:  x2 + x38 <= 1
 clq49:  x12 + x42 + x48 <= 1
 clq50:  x8 + x86 + x121 <= 1
 clq51:  x90 + x103 + x129 <= 1
 clq52:  x57 + x63 <= 1
 clq53:  x75 + x124 <= 1
 clq54:  x14 + x78 + x102 <= 1
 clq55:  x101 + x110 <= 1
 clq56:  x13 + x14 + x32 <= 1
 clq57:  x60 + x63 + x149 <= 1
 clq58:  x50 + x135 + x149 <= 1
 clq59:  x23 + x36 + x37 <= 1
 clq60:  x30 + x66 + x102 <= 1
 clq61:  x14 + x138 <= 1
 clq62:  x128 + x136 + x140 <= 1
 clq63:  x66 + x84 <= 1
 clq64:  x27 + x104 + x107 <= 1
 clq65:  x37 + x41 + x68 <= 1
 clq66:  x5 + x56 + x73 <= 1
 clq67:  x7 + x80 <= 1
 clq68:  x59 + x127 <= 1
 clq69:  x58 + x83 <= 1
 clq70:  x96 + x130 <= 1
 clq71:  x12 + x66 <= 1
 clq72:  x9 + x104 + x115 <= 1
 clq73:  x7 + x110 <= 1
 clq74:  x3 + x129 <= 1
 clq75:  x9 + x43 <= 1
 clq76:  x16 + x20 <= 1
 clq77:  x49 + x109 + x111 <= 1
 clq78:  x58 + x63 + x144 <= 1
 clq79:  x44 + x56 + x67 <= 1
 clq80:  x81 + x124 <= 1
 clq81:  x29 + x51 + x72 <= 1
 clq82:  x86 + x121 + x147 <= 1
 clq83:  x65 + x130 + x139 <= 1
 clq84:  x31 + x79 <= 1
 clq85:  x1 + x70 + x128 <= 1
 clq86:  x92 + x93 + x147 <= 1
 clq87:  x28 + x121 <= 1
 clq88:  x23 + x90 + x132 <= 1
 clq89:  x89 + x125 <= 1
 clq90:  x37 + x59 + x124 <= 1
 clq91:  x9 + x134 <= 1
 clq92:  x108 + x135 + x149 <= 1
 clq93:  x58 + x60 + x63 <= 1
 clq94:  x24 + x32 + x50 + x116 <= 1
 clq95:  x9 + x19 + x84 <= 1
 clq96:  x96 + x102 <= 1
 clq97:  x4 + x91 + x112 <= 1
 clq98:  x85 + x113 + x128 <= 1
 clq99:  x10 + x116 + x130 <= 1
 clq100: x55 + x140 <= 1
 clq101: x40 + x84 + x114 <= 1
 clq102: x49 + x56 + x74 <= 1
 clq103: x5 + x27 + x148 <= 1
 clq104: x26 + x43 + x65 <= 1
 clq105: x11 + x27 <= 1
 clq106: x25 + x80 <= 1
 clq107: x79 + x141 <= 1
 clq108: x2 + x57 + x90 <= 1
 clq109: x44 + x77 + x140 <= 1
 clq110: x21 + x54 + x141 <= 1
 clq111: x27 + x39 + x136 + x139 <= 1
 clq112: x24 + x68 <= 1
 clq113: x34 + x124 + x129 <= 1
 clq114: x4 + x76 <= 1
 clq115: x10 + x59 <= 1
 clq116: x36 + x90 + x129 <= 1
 clq117: x64 + x126 <= 1
 clq118: x34 + x36 + x129 <= 1
 clq119: x53 + x125 + x134 <= 1
 clq120: x89 + x92 <= 1
 clq121: x5 + x55 + x69 + x141 <= 1
 clq122: x65 + x121 + x148 <= 1
 clq123: x98 + x146 <= 1
 clq124: x14 + x94 + x99 <= 1
 clq125: x123 + x134 <= 1
 clq126: x72 + x74 + x114 <= 1
 clq127: x10 + x128 + x133 <= 1
 clq128: x27 + x39 + x49 + x136 <= 1
 clq129: x45 + x121 + x148 <= 1
 clq130: x96 + x125 <= 1
 clq131: x30 + x44 + x121 <= 1
 clq132: x62 + x108 + x147 <= 1
 clq133: x127 + x146 <= 1
 clq134: x46 + x51 <= 1
 clq135: x24 + x51 + x116 <= 1
 clq136: x62 + x73 <= 1
 clq137: x10 + x83 <= 1
 clq138: x47 + x81 + x145 <= 1
 clq139: x1 + x70 + x79 <= 1
 clq140: x36 + x137 + x141 <= 1
 clq141: x57 + x81 <= 1
 clq142: x31 + x61 <= 1
 clq143: x28 + x81 <= 1
 clq144: x93 + x109 + x139 <= 1
 clq145: x34 + x50 + x124 <= 1
 clq146: x77 + x93 <= 1
 clq147: x80 + x84 + x106 <= 1
 clq148: x2 + x53 <= 1
 clq149: x3 + x61 + x144 <= 1
 clq150: x83 + x92 <= 1
 clq151: x41 + x96 + x110 <= 1
 clq152: x35 + x80 + x106 <= 1
 clq153: x5 + x30 + x73 <= 1
 clq154: x48 + x77 + x140 <= 1
 clq155: x20 + x36 + x66 <= 1
 clq156: x27 + x106 + x120 <= 1
 clq157: x16 + x120 + x146 <= 1
 clq158: x25 + x34 <= 1
 clq159: x38 + x108 <= 1
 clq160: x63 + x124 <= 1
 clq161: x49 + x82 + x136 <= 1
 clq162: x41 + x63 + x92 <= 1
 clq163: x45 + x71 + x139 <= 1
 clq164: x3 + x12 + x61 <= 1
 clq165: x99 + x116 <= 1
 clq166: x1 + x23 + x77 + x87 <= 1
 clq167: x25 + x88 + x128 <= 1
 clq168: x108 + x119 <= 1
 clq169: x70 + x79 + x112 <= 1
 clq170: x41 + x94 <= 1
 clq171: x90 + x111 <= 1
 clq172: x41 + x110 + x134 <= 1
 clq173: x91 + x107 + x112 <= 1
 clq174: x38 + x59 + x150 <= 1
 clq175: x98 + x113 <= 1
 clq176: x107 + x134 <= 1
 clq177: x100 + x138 <= 1
 clq178: x119 + x126 <= 1
 clq179: x6 + x26 <= 1
 clq180: x49 + x62 + x74 <= 1
 clq181: x90 + x127 + x139 <= 1
 clq182: x27 + x35 + x104 <= 1
 clq183: x4 + x132 <= 1
 clq184: x29 + x53 <= 1
 clq185: x79 + x134 <= 1
 clq186: x46 + x48 + x146 <= 1
 clq187: x3 + x13 + x33 <= 1
 clq188: x13 + x73 <= 1
 clq189: x42 + x125 + x149 <= 1
 clq190: x28 + x74 + x80 <= 1
 clq191: x38 + x83 <= 1
 clq192: x91 + x105 + x108 <= 1
 clq193: x26 + x125 <= 1
 clq194: x21 + x83 + x124 <= 1
 clq195: x62 + x89 <= 1
 clq196: x4 + x109 <= 1
 clq197: x77 + x87 + x124 + x129 <= 1
 clq198: x26 + x103 <= 1
 clq199: x19 + x76 + x103 <= 1
 clq200: x3 + x123 <= 1
 clq201: x27 + x36 + x104 <= 1
 clq202: x5 + x39 + x129 <= 1
 clq203: x87 + x139 <= 1
 clq204: x60 + x86 <= 1
 clq205: x8 + x84 <= 1
 clq206: x65 + x77 + x148 <= 1
 clq207: x40 + x145 <= 1
 clq208: x33 + x74 + x114 <= 1
 clq209: x16 + x134 <= 1
 clq210: x15 + x86 <= 1
 clq211: x18 + x150 <= 1
 clq212: x29 + x120 + x124 <= 1
 clq213: x113 + x116 + x144 <= 1
 clq214: x22 + x38 + x81 <= 1
 clq215: x10 + x27 + x95 + x120 <= 1
 clq216: x10 + x46 + x95 <= 1
 clq217: x30 + x70 <= 1
 clq218: x13 + x54 <= 1
 clq219: x52 + x135 + x149 <= 1
 clq220: x32 + x50 + x124 <= 1
 clq221: x6 + x102 <= 1
 clq222: x3 + x13 + x17 <= 1
 clq223: x30 + x104 <= 1
 clq224: x34 + x37 + x135 <= 1
 clq225: x103 + x124 + x129 <= 1
 clq226: x23 + x91 <= 1
 clq227: x7 + x24 + x56 + x135 <= 1
 clq228: x65 + x77 + x129 <= 1
 clq229: x69 + x112 <= 1
 clq230: x23 + x49 <= 1
 clq231: x45 + x100 <= 1
 clq232: x41 + x49 + x110 <= 1
 clq233: x88 + x132 <= 1
 clq234: x11 + x87 <= 1
 clq235: x71 + x126 <= 1
 clq236: x74 + x97 + x113 <= 1
 clq237: x74 + x123 <= 1
 clq238: x35 + x116 + x126 <= 1
 clq239: x1 + x8 + x115 <= 1
 clq240: x94 + x146 <= 1
 clq241: x48 + x58 + x119 <= 1
 clq242: x19 + x126 <= 1
 clq243: x46 + x71 + x95 <= 1
 clq244: x35 + x56 <= 1
 clq245: x96 + x98 <= 1
 clq246: x50 + x70 + x82 <= 1
 clq247: x52 + x63 + x144 <= 1
 clq248: x40 + x88 + x134 <= 1
 clq249: x25 + x46 + x95 <= 1
 clq250: x28 + x73 <= 1
 clq251: x92 + x138 + x145 <= 1
 clq252: x32 + x103 + x124 + x134 <= 1
 clq253: x58 + x106 <= 1
 clq254: x18 + x61 + x120 <= 1
 clq255: x15 + x144 <= 1
 clq256: x36 + x47 <= 1
 clq257: x61 + x134 <= 1
 clq258: x96 + x143 <= 1
 clq259: x8 + x121 + x142 <= 1
 clq260: x37 + x87 + x107 <= 1
 clq261: x4 + x91 + x133 <= 1
 clq262: x68 + x109 <= 1
 clq263: x36 + x65 + x141 <= 1
 clq264: x26 + x56 + x72 <= 1
 clq265: x18 + x22 + x120 <= 1
 clq266: x6 + x23 + x37 <= 1
 clq267: x30 + x44 + x52 <= 1
 clq268: x26 + x108 + x143 <= 1
 clq269: x41 + x52 + x63 <= 1
 clq270: x2 + x118 <= 1
 clq271: x26 + x72 + x88 <= 1
 clq272: x5 + x18 + x30 <= 1
 clq273: x32 + x44 + x56 <= 1
 clq274: x55 + x101 + x149 <= 1
 clq275: x11 + x14 <= 1
 clq276: x65 + x118 <= 1
 clq277: x20 + x41 + x52 <= 1
 clq278: x32 + x39 + x40 <= 1
 clq279: x35 + x81 + x115 <= 1
 clq280: x59 + x62 + x149 <= 1
 clq281: x32 + x103 + x116 <= 1
 clq282: x3 + x26 <= 1
 clq283: x40 + x43 + x129 <= 1
 clq284: x49 + x56 + x135 <= 1
 clq285: x68 + x149 <= 1
 clq286: x37 + x59 + x74 <= 1
 clq287: x76 + x107 <= 1
 clq288: x34 + x37 + x148 <= 1
 clq289: x20 + x143 <= 1
 clq290: x69 + x117 + x119 <= 1
 clq291: x15 + x104 + x136 <= 1
 clq292: x83 + x136 <= 1
 clq293: x29 + x71 <= 1
 clq294: x6 + x75 <= 1
 clq295: x17 + x86 + x141 <= 1
 clq296: x12 + x59 + x62 <= 1
 clq297: x27 + x49 + x138 <= 1
 clq298: x10 + x55 + x139 <= 1
 clq299: x37 + x59 + x105 <= 1
 clq300: x3 + x9 + x14 <= 1
 clq301: x15 + x64 + x136 <= 1
 clq302: x116 + x121 + x148 <= 1
 clq303: x110 + x128 + x133 <= 1
 clq304: x34 + x122 <= 1
 clq305: x7 + x99 <= 1
 clq306: x25 + x81 + x145 <= 1
 clq307: x78 + x126 <= 1
 clq308: x54 + x59 + x105 <= 1
 clq309: x31 + x133 <= 1
 clq310: x70 + x79 + x105 <= 1
 clq311: x23 + x58 <= 1
 clq312: x44 + x137 <= 1
 clq313: x27 + x74 + x75 <= 1
 clq314: x7 + x142 <= 1
 clq315: x21 + x108 + x111 <= 1
 clq316: x13 + x14 + x35 <= 1
 clq317: x5 + x55 + x116 + x148 <= 1
 clq318: x78 + x88 <= 1
 clq319: x117 + x131 <= 1
 clq320: x84 + x135 <= 1
 clq321: x39 + x98 + x139 <= 1
 clq322: x52 + x71 + x79 <= 1
 clq323: x16 + x74 <= 1
 clq324: x49 + x60 <= 1
 clq325: x18 + x80 <= 1
 clq326: x24 + x131 <= 1
 clq327: x17 + x66 + x102 <= 1
 clq328: x71 + x123 <= 1
 clq329: x35 + x70 + x128 <= 1
 clq330: x10 + x76 + x130 <= 1
 clq331: x23 + x65 + x130 <= 1
 clq332: x33 + x76 + x105 <= 1
 clq333: x13 + x33 + x147 <= 1
 clq334: x63 + x115 <= 1
 clq335: x12 + x48 + x132 <= 1
 clq336: x41 + x137 <= 1
 clq337: x8 + x37 + x115 <= 1
 clq338: x95 + x113 <= 1
 clq339: x2 + x104 + x136 <= 1
 clq340: x10 + x47 <= 1
 clq341: x32 + x142 <= 1
 clq342: x103 + x129 + x136 <= 1
 clq343: x94 + x145 <= 1
 clq344: x54 + x102 + x105 <= 1
 clq345: x65 + x115 <= 1
 clq346: x81 + x114 + x150 <= 1
 clq347: x122 + x132 <= 1
 clq348: x31 + x121 + x125 <= 1
 clq349: x24 + x138 <= 1
 clq350: x116 + x123 <= 1
 clq351: x7 + x24 + x86 <= 1
 clq352: x26 + x65 + x143 <= 1
 clq353: x3 + x47 <= 1
 clq354: x20 + x53 <= 1
 clq355: x71 + x91 <= 1
 clq356: x76 + x94 + x103 <= 1
 clq357: x55 + x61 + x76 <= 1
 clq358: x5 + x59 + x148 <= 1
 clq359: x54 + x99 + x102 <= 1
 clq360: x53 + x92 <= 1
 clq361: x17 + x52 <= 1
 clq362: x32 + x57 + x87 <= 1
 clq363: x67 + x131 + x132 <= 1
 clq364: x14 + x78 + x136 <= 1
 clq365: x25 + x99 + x128 <= 1
 clq366: x8 + x37 + x99 <= 1
 clq367: x89 + x126 <= 1
 clq368: x123 + x142 <= 1
 clq369: x71 + x131 <= 1
 clq370: x9 + x73 <= 1
 clq371: x47 + x118 <= 1
 clq372: x84 + x107 <= 1
 clq373: x63 + x102 + x144 <= 1
 clq374: x35 + x81 + x106 <= 1
 clq375: x12 + x106 <= 1
 clq376: x45 + x84 <= 1
 clq377: x40 + x129 + x143 <= 1
 clq378: x131 + x144 + x150 <= 1
 clq379: x79 + x130 <= 1
 clq380: x6 + x64 + x97 <= 1
 clq381: x11 + x93 <= 1
 clq382: x25 + x128 + x133 <= 1
 clq383: x32 + x40 + x134 <= 1
 clq384: x101 + x123 <= 1
 clq385: x17 + x45 <= 1
 clq386: x1 + x27 + x39 <= 1
 clq387: x6 + x122 + x137 <= 1
 clq388: x30 + x45 + x54 + x121 <= 1
 clq389: x46 + x124 <= 1
 clq390: x5 + x57 + x141 <= 1
 clq391: x37 + x126 + x148 <= 1
 clq392: x6 + x109 + x111 + x116 <= 1
 clq393: x5 + x73 + x141 <= 1
 clq394: x15 + x16 + x19 <= 1
 clq395: x27 + x104 + x136 <= 1
 clq396: x29 + x84 + x140 <= 1
 clq397: x65 + x66 + x97 <= 1
 clq398: x66 + x125 <= 1
 clq399: x58 + x78 <= 1
 clq400: x82 + x97 + x141 <= 1
 clq401: x2 + x64 + x97 + x136 <= 1
 clq402: x2 + x57 + x87 <= 1
 clq403: x97 + x112 <= 1
 clq404: x65 + x77 + x150 <= 1
 clq405: x75 + x128 + x140 <= 1
 clq406: x10 + x82 <= 1
 clq407: x4 + x44 <= 1
 clq408: x24 + x51 + x135 <= 1
 clq409: x16 + x19 + x77 <= 1
 clq410: x71 + x125 <= 1
 clq411: x14 + x85 + x114 <= 1
 clq412: x31 + x75 <= 1
 clq413: x75 + x92 <= 1
 clq414: x71 + x145 <= 1
 clq415: x17 + x56 <= 1
 clq416: x93 + x98 + x139 <= 1
 clq417: x54 + x56 + x93 <= 1
 clq418: x84 + x122 + x140 <= 1
 clq419: x15 + x142 <= 1
 clq420: x1 + x8 + x121 <= 1
 clq421: x5 + x116 + x144 <= 1
 clq422: x62 + x140 <= 1
 clq423: x5 + x27 + x101 <= 1
 clq424: x76 + x103 + x105 <= 1
 clq425: x18 + x78 <= 1
 clq426: x35 + x48 + x70 <= 1
 clq427: x14 + x78 + x94 <= 1
 clq428: x69 + x124 <= 1
 clq429: x93 + x101 + x114 <= 1
 clq430: x46 + x150 <= 1
 clq431: x43 + x112 <= 1
 clq432: x52 + x85 + x103 <= 1
 clq433: x33 + x114 + x146 <= 1
 clq434: x17 + x23 <= 1
 clq435: x18 + x30 + x121 <= 1
 clq436: x140 + x143 <= 1
 clq437: x5 + x56 + x122 <= 1
 clq438: x100 + x117 <= 1
 clq439: x16 + x128 + x135 <= 1
 clq440: x11 + x33 <= 1
 clq441: x130 + x131 <= 1
 clq442: x5 + x60 + x105 <= 1
 clq443: x101 + x119 <= 1
 clq444: x26 + x84 + x88 <= 1
 clq445: x10 + x55 + x133 <= 1
 clq446: x28 + x82 + x132 <= 1
 clq447: x57 + x112 + x120 <= 1
 clq448: x8 + x96 <= 1
 clq449: x122 + x130 <= 1
 clq450: x22 + x56 + x93 <= 1
 clq451: x8 + x103 + x117 <= 1
 clq452: x51 + x74 + x80 <= 1
 clq453: x20 + x41 + x132 <= 1
 clq454: x81 + x145 + x150 <= 1
 clq455: x15 + x21 + x139 <= 1
 clq456: x44 + x52 + x98 <= 1
 clq457: x53 + x55 + x141 <= 1
 clq458: x53 + x105 + x125 <= 1
 clq459: x5 + x22 + x39 + x56 <= 1
 clq460: x44 + x67 + x100 <= 1
 clq461: x112 + x131 + x148 <= 1
 clq462: x44 + x77 + x78 + x100 <= 1
 clq463: x110 + x144 <= 1
 clq464: x102 + x107 + x112 <= 1
 clq465: x51 + x52 + x135 <= 1
 clq466: x5 + x59 + x105 <= 1
 clq467: x3 + x82 <= 1
 clq468: x12 + x69 + x141 <= 1
 clq469: x30 + x45 + x146 <= 1
 clq470: x2 + x98 + x104 <= 1
 clq471: x41 + x68 + x110 <= 1
 clq472: x19 + x61 + x76 <= 1
 clq473: x67 + x108 <= 1
 clq474: x43 + x53 + x129 <= 1
 clq475: x107 + x142 <= 1
 clq476: x108 + x111 + x138 <= 1
 clq477: x108 + x138 + x149 <= 1
 clq478: x18 + x90 <= 1
 clq479: x8 + x83 <= 1
 clq480: x5 + x22 + x105 <= 1
 clq481: x95 + x102 <= 1
 clq482: x6 + x37 + x59 <= 1
 clq483: x63 + x73 <= 1
 clq484: x112 + x137 <= 1
 clq485: x29 + x41 <= 1
 clq486: x45 + x69 + x82 <= 1
 clq487: x106 + x143 <= 1
 clq488: x3 + x13 + x14 <= 1
 clq489: x29 + x42 + x72 <= 1
 clq490: x28 + x46 + x95 <= 1
 clq491: x104 + x133 <= 1
 clq492: x1 + x7 + x70 <= 1
 clq493: x62 + x72 + x74 <= 1
 clq494: x25 + x97 <= 1
 clq495: x37 + x48 + x146 <= 1
 clq496: x100 + x142 <= 1
 clq497: x85 + x106 <= 1
 clq498: x104 + x112 + x115 <= 1
 clq499: x14 + x46 <= 1
 clq500: x50 + x113 + x116 <= 1
 clq501: x62 + x100 <= 1
 clq502: x18 + x85 <= 1
 clq503: x43 + x127 + x147 <= 1
 clq504: x12 + x28 + x132 <= 1
 clq505: x38 + x81 + x125 <= 1
 clq506: x15 + x19 + x112 <= 1
 clq507: x20 + x35 <= 1
 clq508: x10 + x17 + x76 <= 1
 clq509: x28 + x104 + x140 <= 1
 clq510: x5 + x23 + x125 <= 1
 clq511: x31 + x116 + x121 <= 1
 clq512: x15 + x136 + x139 <= 1
 clq513: x44 + x56 + x135 <= 1
 clq514: x91 + x112 + x148 <= 1
 clq515: x91 + x103 + x133 <= 1
 clq516: x1 + x94 <= 1
 clq517: x75 + x86 + x128 <= 1
 clq518: x39 + x40 + x49 <= 1
 clq519: x39 + x49 + x56 <= 1
 clq520: x32 + x56 + x87 <= 1
 clq521: x26 + x104 <= 1
 clq522: x1 + x67 + x121 <= 1
 clq523: x33 + x138 <= 1
 clq524: x57 + x93 + x147 <= 1
 clq525: x18 + x30 + x146 <= 1
 clq526: x84 + x123 <= 1
 clq527: x6 + x114 <= 1
 clq528: x41 + x49 + x55 <= 1
 clq529: x120 + x123 <= 1
 clq530: x37 + x124 + x126 <= 1
 clq531: x24 + x36 <= 1
 clq532: x71 + x86 <= 1
 clq533: x75 + x146 <= 1
 clq534: x72 + x74 + x75 <= 1
 clq535: x28 + x74 + x75 <= 1
 clq536: x4 + x99 <= 1
 clq537: x4 + x57 + x112 <= 1
 clq538: x16 + x137 <= 1
 clq539: x31 + x37 <= 1
 clq540: x10 + x143 <= 1
 clq541: x12 + x42 + x69 <= 1
 clq542: x18 + x22 + x92 + x97 <= 1
 clq543: x29 + x120 + x140 <= 1
 clq544: x13 + x41 <= 1
 clq545: x64 + x70 + x133 <= 1
 clq546: x70 + x82 + x91 <= 1
 clq547: x21 + x49 + x95 <= 1
 clq548: x29 + x59 + x85 <= 1
 clq549: x61 + x128 <= 1
 clq550: x40 + x69 + x141 <= 1
 clq551: x50 + x88 + x149 <= 1
 clq552: x48 + x67 + x132 <= 1
 clq553: x102 + x103 + x105 <= 1
 clq554: x42 + x125 + x134 <= 1
 clq555: x89 + x99 <= 1
 clq556: x48 + x70 + x112 <= 1
 clq557: x80 + x101 <= 1
 clq558: x86 + x93 + x147 <= 1
 clq559: x44 + x123 <= 1
 clq560: x1 + x129 + x143 <= 1
 clq561: x8 + x61 <= 1
 clq562: x14 + x44 + x78 <= 1
 clq563: x117 + x145 <= 1
 clq564: x24 + x64 <= 1
 clq565: x49 + x66 + x110 <= 1
 clq566: x31 + x35 + x81 <= 1
 clq567: x27 + x42 + x139 <= 1
 clq568: x13 + x27 + x35 <= 1
 clq569: x7 + x53 <= 1
 clq570: x63 + x143 <= 1
 clq571: x78 + x122 <= 1
 clq572: x30 + x45 + x139 <= 1
 clq573: x32 + x127 <= 1
 clq574: x78 + x79 <= 1
 clq575: x3 + x122 <= 1
 clq576: x110 + x121 + x147 <= 1
 clq577: x25 + x144 <= 1
 clq578: x30 + x131 <= 1
 clq579: x45 + x63 + x144 <= 1
 clq580: x89 + x135 <= 1
 clq581: x39 + x139 + x150 <= 1
 clq582: x51 + x128 + x135 <= 1
 clq583: x53 + x77 + x100 <= 1
 clq584: x15 + x81 <= 1
 clq585: x118 + x131 <= 1
 clq586: x70 + x114 <= 1
 clq587: x130 + x147 <= 1
 clq588: x82 + x125 + x136 <= 1
 clq589: x55 + x69 + x127 <= 1
 clq590: x129 + x142 <= 1
 clq591: x13 + x91 <= 1
 clq592: x41 + x55 + x132 <= 1
 clq593: x8 + x104 + x115 <= 1
 clq594: x2 + x101 <= 1
 clq595: x15 + x101 <= 1
 clq596: x49 + x56 + x111 <= 1
 clq597: x53 + x55 + x148 <= 1
 clq598: x69 + x82 + x141 <= 1
 clq599: x51 + x57 + x87 <= 1
 clq600: x89 + x101 + x114 <= 1
 clq601: x54 + x87 + x129 <= 1
 clq602: x7 + x65 + x130 <= 1
 clq603: x19 + x42 <= 1
 clq604: x35 + x90 <= 1
 clq605: x98 + x122 <= 1
 clq606: x11 + x112 <= 1
 clq607: x22 + x45 + x111 <= 1
 clq608: x24 + x78 <= 1
 clq609: x23 + x46 <= 1
 clq610: x123 + x143 <= 1
 clq611: x5 + x8 + x33 <= 1
 clq612: x52 + x103 + x149 <= 1
 clq613: x1 + x118 <= 1
 clq614: x51 + x76 + x77 <= 1
 clq615: x90 + x132 + x135 <= 1
 clq616: x67 + x131 + x144 <= 1
 clq617: x10 + x116 + x144 <= 1
 clq618: x120 + x125 <= 1
 clq619: x70 + x133 + x145 <= 1
 clq620: x96 + x109 <= 1
 clq621: x25 + x69 + x88 <= 1
 clq622: x72 + x105 <= 1
 clq623: x33 + x58 <= 1
 clq624: x99 + x147 <= 1
 clq625: x98 + x111 <= 1
 clq626: x47 + x147 <= 1
 clq627: x54 + x88 + x121 <= 1
 clq628: x24 + x85 <= 1
 clq629: x30 + x38 <= 1
 clq630: x45 + x118 <= 1
 clq631: x17 + x76 + x150 <= 1
 clq632: x28 + x74 + x82 <= 1
 clq633: x39 + x53 + x129 <= 1
 clq634: x27 + x49 + x74 <= 1
 clq635: x85 + x137 <= 1
 clq636: x7 + x62 <= 1
 clq637: x19 + x108 <= 1
 clq638: x6 + x97 + x111 <= 1
 clq639: x32 + x132 <= 1
 clq640: x82 + x132 + x136 <= 1
 clq641: x40 + x91 <= 1
 clq642: x16 + x71 <= 1
 clq643: x67 + x69 <= 1
 clq644: x49 + x99 + x136 <= 1
 clq645: x83 + x102 <= 1
 clq646: x14 + x62 <= 1
 clq647: x28 + x34 + x39 <= 1
 clq648: x60 + x104 + x149 <= 1
 clq649: x13 + x17 + x66 <= 1
 clq650: x96 + x135 <= 1
 clq651: x46 + x54 + x88 <= 1
 clq652: x79 + x105 + x108 <= 1
 clq653: x55 + x108 + x149 <= 1
 clq654: x49 + x66 + x99 <= 1
 clq655: x34 + x61 + x100 <= 1
 clq656: x48 + x61 + x119 <= 1
Bounds
 0 <= x1 <= 1
 0 <= x2 <= 1
 0 <= x3 <= 1
 0 <= x4 <= 1
 0 <= x5 <= 1
 0 <= x6 <= 1
 0 <= x7 <= 1
 0 <= x8 <= 1
 0 <= x9 <= 1
 0 <= x10 <= 1
 0 <= x11 <= 1
 0 <= x12 <= 1
 0 <= x13 <= 1
 0 <= x14 <= 1
 0 <= x15 <= 1
 0 <= x16 <= 1
 0 <= x17 <= 1
 0 <= x18 <= 1
 0 <= x19 <= 1
 0 <= x20 <= 1
 0 <= x21 <= 1
 0 <= x22 <= 1
 0 <= x23 <= 1
 0 <= x24 <= 1
 0 <= x25 <= 1
 0 <= x26 <= 1
 0 <= x27 <= 1
 0 <= x28 <= 1
 0 <= x29 <= 1
 0 <= x30 <= 1
 0 <= x31 <= 1
 0 <= x32 <= 1
 0 <= x33 <= 1
 0 <= x34 <= 1
 0 <= x35 <= 1
 0 <= x36 <= 1
 0 <= x37 <= 1
 0 <= x38 <= 1
 0 <= x39 <= 1
 0 <= x40 <= 1
 0 <= x41 <= 1
 0 <= x42 <= 1
 0 <= x43 <= 1
 0 <= x44 <= 1
 0 <= x45 <= 1
 0 <= x46 <= 1
 0 <= x47 <= 1
 0 <= x48 <= 1
 0 <= x49 <= 1
 0 <= x50 <= 1
 0 <= x51 <= 1
 0 <= x52 <= 1
 0 <= x53 <= 1
 0 <= x54 <= 1
 0 <= x55 <= 1
 0 <= x56 <= 1
 0 <= x57 <= 1
 0 <= x58 <= 1
 0 <= x59 <= 1
 0 <= x60 <= 1
 0 <= x61 <= 1
 0 <= x62 <= 1
 0 <= x63 <= 1
 0 <= x64 <= 1
 0 <= x65 <= 1
 0 <= x66 <= 1
 0 <= x67 <= 1
 0 <= x68 <= 1
 0 <= x69 <= 1
 0 <= x70 <= 1
 0 <= x71 <= 1
 0 <= x72 <= 1
 0 <= x73 <= 1
 0 <= x74 <= 1
 0 <= x75 <= 1
 0 <= x76 <= 1
 0 <= x77 <= 1
 0 <= x78 <= 1
 0 <= x79 <= 1
 0 <= x80 <= 1
 0 <= x81 <= 1
 0 <= x82 <= 1
 0 <= x83 <= 1
 0 <= x84 <= 1
 0 <= x85 <= 1
 0 <= x86 <= 1
 0 <= x87 <= 1
 0 <= x88 <= 1
 0 <= x89 <= 1
 0 <= x90 <= 1
 0 <= x91 <= 1
 0 <= x92 <= 1
 0 <= x93 <= 1
 0 <= x94 <= 1
 0 <= x95 <= 1
 0 <= x96 <= 1
 0 <= x97 <= 1
 0 <= x98 <= 1
 0 <= x99 <= 1
 0 <= x100 <= 1
 0 <= x101 <= 1
 0 <= x102 <= 1
 0 <= x103 <= 1
 0 <= x104 <= 1
 0 <= x105 <= 1
 0 <= x106 <= 1
 0 <= x107 <= 1
 0 <= x108 <= 1
 0 <= x109 <= 1
 0 <= x110 <= 1
 0 <= x111 <= 1
 0 <= x112 <= 1
 0 <= x113 <= 1
 0 <= x114 <= 1
 0 <= x115 <= 1
 0 <= x116 <= 1
 0 <= x117 <= 1
 0 <= x118 <= 1
 0 <= x119 <= 1
 0 <= x120 <= 1
 0 <= x121 <= 1
 0 <= x122 <= 1
 0 <= x123 <= 1
 0 <= x124 <= 1
 0 <= x125 <= 1
 0 <= x126 <= 1
 0 <= x127 <= 1
 0 <= x128 <= 1
 0 <= x129 <= 1
 0 <= x130 <= 1
 0 <= x131 <= 1
 0 <= x132 <= 1
 0 <= x133 <= 1
 0 <= x134 <= 1
 0 <= x135 <= 1
 0 <= x136 <= 1
 0 <= x137 <= 1
 0 <= x138 <= 1
 0 <= x139 <= 1
 0 <= x140 <= 1
 0 <= x141 <= 1
 0 <= x142 <= 1
 0 <= x143 <= 1
 0 <= x144 <= 1
 0 <= x145 <= 1
 0 <= x146 <= 1
 0 <= x147 <= 1
 0 <= x148 <= 1
 0 <= x149 <= 1
 0 <= x150 <= 1
Binaries
 x1  x2  x3  x4  x5  x6  x7  x8  x9  x10  x11  x12  x13  x14  x15  x16  x17 
 x18  x19  x20  x21  x22  x23  x24  x25  x26  x27  x28  x29  x30  x31  x32 
 x33  x34  x35  x36  x37  x38  x39  x40  x41  x42  x43  x44  x45  x46  x47 
 x48  x49  x50  x51  x52  x53  x54  x55  x56  x57  x58  x59  x60  x61  x62 
 x63  x64  x65  x66  x67  x68  x69  x70  x71  x72  x73  x74  x75  x76  x77 
 x78  x79  x80  x81  x82  x83  x84  x85  x86  x87  x88  x89  x90  x91  x92 
 x93  x94  x95  x96  x97  x98  x99  x100  x101  x102  x103  x104  x105  x106 
 x107  x108  x109  x110  x111  x112  x113  x114  x115  x116  x117  x118  x119 
 x120  x121  x122  x123  x124  x125  x126  x127  x128  x129  x130  x131  x132 
 x133  x134  x135  x136  x137  x138  x139  x140  x141  x142  x143  x144  x145 
 x146  x147  x148  x149  x150 
End
